Cost: 1323
0-26-1-9-28-3-4-29-30-7-31-5-6-8-11-10-47-25-0
0-22-41-43-42-20-38-18-17-36-14-16-45-19-39-21-40-0
Cost: 1323
0-26-1-9-28-3-4-29-30-7-31-5-6-8-11-10-47-25-0
0-41-43-42-22-40-20-38-18-17-36-14-16-45-19-39-21-0
Cost: 1323
0-26-1-9-28-3-4-29-30-7-31-5-6-8-11-10-47-25-0
0-22-41-43-42-20-38-18-17-36-14-16-45-19-39-21-40-0
Cost: 1323
0-26-1-9-28-3-4-29-30-7-31-5-6-8-11-10-47-25-0
0-22-41-43-42-20-38-18-17-36-14-16-45-19-39-21-40-0
Cost: 1323
0-26-1-9-27-28-3-4-29-30-7-31-5-6-8-11-10-47-0
0-41-43-42-22-20-38-18-17-36-14-16-45-19-39-21-40-0
Cost: 1323
0-22-41-43-42-20-38-18-17-36-14-16-45-19-39-21-40-0
0-26-1-9-27-28-3-4-29-30-7-31-5-6-8-11-10-47-0
Cost: 1323
0-26-1-9-28-3-4-29-30-7-31-5-6-8-11-10-47-25-0
0-41-43-42-22-20-38-18-17-36-14-16-45-19-39-21-40-0
Cost: 1323
0-22-41-43-42-40-20-38-18-17-36-14-16-45-19-39-21-0
0-26-1-9-28-3-4-29-30-7-31-5-6-8-11-10-47-25-0
Cost: 1323
0-22-41-43-42-40-20-38-18-17-36-14-16-45-19-39-21-0
0-26-1-9-28-3-4-29-30-7-31-5-6-8-11-10-47-25-0
Cost: 1323
0-22-41-43-42-40-20-38-18-17-36-14-16-45-19-39-21-0
0-26-1-9-28-3-4-29-30-7-31-5-6-8-11-10-47-25-0
Cost: 1323
0-22-41-43-42-40-20-38-18-17-36-14-16-45-19-39-21-0
0-26-1-9-28-3-4-29-30-7-31-5-6-8-11-10-47-25-0
Cost: 1323
0-41-43-42-22-20-38-18-17-36-14-16-45-19-39-21-40-0
0-26-1-9-28-3-4-29-30-7-31-5-6-8-11-10-47-25-0
Cost: 1323
0-41-43-42-22-20-38-18-17-36-14-16-45-19-39-21-40-0
0-26-1-9-28-3-4-29-30-7-31-5-6-8-11-10-47-25-0
Cost: 1323
0-41-43-42-22-20-38-18-17-36-14-16-45-19-39-21-40-0
0-26-1-9-28-3-4-29-30-7-31-5-6-8-11-10-47-25-0
Cost: 1323
0-41-43-42-22-20-38-18-17-36-14-16-45-19-39-21-40-0
0-26-1-9-28-3-4-29-30-7-31-5-6-8-11-10-47-25-0
Cost: 1323
0-41-43-42-22-20-38-18-17-36-14-16-45-19-39-21-40-0
0-26-1-9-28-3-4-29-30-7-31-5-6-8-11-10-47-25-0
Cost: 1323
0-41-43-42-22-20-38-18-17-36-14-16-45-19-39-21-40-0
0-26-1-9-28-3-4-29-30-7-31-5-6-8-11-10-47-25-0
Cost: 1323
0-41-43-42-22-20-38-18-17-36-14-16-45-19-39-21-40-0
0-26-1-9-28-3-4-29-30-7-31-5-6-8-11-10-47-25-0
Cost: 1323
0-41-43-42-22-20-38-18-17-36-14-16-45-19-39-21-40-0
0-26-1-9-28-3-4-29-30-7-31-5-6-8-11-10-47-25-0
Cost: 1323
0-41-43-42-22-20-38-18-17-36-14-16-45-19-39-21-40-0
0-26-1-9-28-3-4-29-30-7-31-5-6-8-11-10-47-25-0
Cost: 1323
0-41-43-42-22-20-38-18-17-36-14-16-45-19-39-21-40-0
0-26-1-9-28-3-4-29-30-7-31-5-6-8-11-10-47-25-0
Cost: 1323
0-41-43-42-22-20-38-18-17-36-14-16-45-19-39-21-40-0
0-26-1-9-28-3-4-29-30-7-31-5-6-8-11-10-47-25-0
Cost: 1323
0-41-43-42-22-20-38-18-17-36-14-16-45-19-39-21-40-0
0-26-1-9-28-3-4-29-30-7-31-5-6-8-11-10-47-25-0
Cost: 1323
0-41-43-42-22-20-38-18-17-36-14-16-45-19-39-21-40-0
0-26-1-9-28-3-4-29-30-7-31-5-6-8-11-10-47-25-0
Cost: 1323
0-41-43-42-22-20-38-18-17-36-14-16-45-19-39-21-40-0
0-26-1-9-28-3-4-29-30-7-31-5-6-8-11-10-47-25-0
Cost: 1323
0-1-9-27-28-3-4-29-30-7-31-5-6-8-11-10-47-25-0
0-41-43-42-22-40-20-38-18-17-36-14-16-45-19-39-21-0
Cost: 1323
0-41-43-42-22-20-38-18-17-36-14-16-45-19-39-21-40-0
0-26-1-9-28-3-4-29-30-7-31-5-6-8-11-10-47-25-0
Cost: 1323
0-41-43-42-22-20-38-18-17-36-14-16-45-19-39-21-40-0
0-26-1-9-28-3-4-29-30-7-31-5-6-8-11-10-47-25-0
Cost: 1323
0-41-43-42-22-20-38-18-17-36-14-16-45-19-39-21-40-0
0-26-1-9-28-3-4-29-30-7-31-5-6-8-11-10-47-25-0
Cost: 1323
0-41-43-42-22-20-38-18-17-36-14-16-45-19-39-21-40-0
0-26-1-9-28-3-4-29-30-7-31-5-6-8-11-10-47-25-0
Cost: 1323
0-26-1-9-28-3-4-29-30-7-31-5-6-8-11-10-47-25-0
0-22-41-43-42-20-38-18-17-36-14-16-45-19-39-21-40-0
Cost: 1323
0-41-43-42-22-40-20-38-18-17-36-14-16-45-19-39-21-0
0-26-1-9-28-3-4-29-30-7-31-5-6-8-11-10-47-25-0
Cost: 1323
0-41-43-42-22-20-38-18-17-14-16-45-19-39-21-40-0
0-26-1-9-33-27-28-3-4-29-30-7-31-5-6-8-11-10-47-0
Cost: 1323
0-26-1-9-28-3-4-29-30-7-31-5-6-8-11-10-47-25-0
0-41-43-42-22-20-38-18-17-36-14-16-45-19-39-21-40-0
Cost: 1323
0-26-1-9-27-28-3-4-29-30-7-31-5-6-8-11-10-47-0
0-41-43-42-22-40-20-38-18-17-36-14-16-45-19-39-21-0
